59 300 208 201 207 238 233 249 215 217 248 235 224 228 216 242 229 215 241 240 241 212 222 223 218 207 204 220 250 226 249 223 232 206 224 239 218 206 237 208 249 208 243 247 237 233 238 240 222 202 229 237 214 225 210 232 207 214 226 231 214 